NAME : Envelope with Triangle
COMMENT : An alteration to fat_envelope to expose flaws in the BestWorstInsertion algorithm
TYPE : TSP
DIMENSION : 7
EDGE_WEIGHT_TYPE : EUC_2D
NODE_COORD_SECTION
1 1.5 0.875
2 3 0
3 1 1.175
4 3 2
5 0 2
6 2 1.175
7 0 0
EOF
